(set-logic QF_S)
(declare-fun var0 () String)
(declare-fun var512 () String)
(declare-fun var511 () String)
(declare-fun var510 () String)
(declare-fun var509 () String)
(declare-fun var508 () String)
(declare-fun var507 () String)
(declare-fun var506 () String)
(declare-fun var505 () String)
(declare-fun var504 () String)
(declare-fun var503 () String)
(declare-fun var502 () String)
(declare-fun var501 () String)
(declare-fun var500 () String)
(declare-fun var499 () String)
(declare-fun var498 () String)
(declare-fun var497 () String)
(declare-fun var496 () String)
(declare-fun var495 () String)
(declare-fun var494 () String)
(declare-fun var493 () String)
(declare-fun var492 () String)
(declare-fun var491 () String)
(declare-fun var490 () String)
(declare-fun var489 () String)
(declare-fun var488 () String)
(declare-fun var487 () String)
(declare-fun var486 () String)
(declare-fun var485 () String)
(declare-fun var484 () String)
(declare-fun var483 () String)
(declare-fun var482 () String)
(declare-fun var481 () String)
(declare-fun var480 () String)
(declare-fun var479 () String)
(declare-fun var478 () String)
(declare-fun var477 () String)
(declare-fun var476 () String)
(declare-fun var475 () String)
(declare-fun var474 () String)
(declare-fun var473 () String)
(declare-fun var472 () String)
(declare-fun var471 () String)
(declare-fun var470 () String)
(declare-fun var469 () String)
(declare-fun var468 () String)
(declare-fun var467 () String)
(declare-fun var466 () String)
(declare-fun var465 () String)
(declare-fun var464 () String)
(declare-fun var463 () String)
(declare-fun var462 () String)
(declare-fun var461 () String)
(declare-fun var460 () String)
(declare-fun var459 () String)
(declare-fun var458 () String)
(declare-fun var457 () String)
(declare-fun var456 () String)
(declare-fun var455 () String)
(declare-fun var454 () String)
(declare-fun var453 () String)
(declare-fun var452 () String)
(declare-fun var451 () String)
(declare-fun var450 () String)
(declare-fun var449 () String)
(declare-fun var448 () String)
(declare-fun var447 () String)
(declare-fun var446 () String)
(declare-fun var445 () String)
(declare-fun var444 () String)
(declare-fun var443 () String)
(declare-fun var442 () String)
(declare-fun var441 () String)
(declare-fun var440 () String)
(declare-fun var439 () String)
(declare-fun var438 () String)
(declare-fun var437 () String)
(declare-fun var436 () String)
(declare-fun var435 () String)
(declare-fun var434 () String)
(declare-fun var433 () String)
(declare-fun var432 () String)
(declare-fun var431 () String)
(declare-fun var430 () String)
(declare-fun var429 () String)
(declare-fun var428 () String)
(declare-fun var427 () String)
(declare-fun var426 () String)
(declare-fun var425 () String)
(declare-fun var424 () String)
(declare-fun var423 () String)
(declare-fun var422 () String)
(declare-fun var421 () String)
(declare-fun var420 () String)
(declare-fun var419 () String)
(declare-fun var418 () String)
(declare-fun var417 () String)
(declare-fun var416 () String)
(declare-fun var415 () String)
(declare-fun var414 () String)
(declare-fun var413 () String)
(declare-fun var412 () String)
(declare-fun var411 () String)
(declare-fun var410 () String)
(declare-fun var409 () String)
(declare-fun var408 () String)
(declare-fun var407 () String)
(declare-fun var406 () String)
(declare-fun var405 () String)
(declare-fun var404 () String)
(declare-fun var403 () String)
(declare-fun var402 () String)
(declare-fun var401 () String)
(declare-fun var400 () String)
(declare-fun var399 () String)
(declare-fun var398 () String)
(declare-fun var397 () String)
(declare-fun var396 () String)
(declare-fun var395 () String)
(declare-fun var394 () String)
(declare-fun var393 () String)
(declare-fun var392 () String)
(declare-fun var391 () String)
(declare-fun var390 () String)
(declare-fun var389 () String)
(declare-fun var388 () String)
(declare-fun var387 () String)
(declare-fun var386 () String)
(declare-fun var385 () String)
(declare-fun var384 () String)
(declare-fun var383 () String)
(declare-fun var382 () String)
(declare-fun var381 () String)
(declare-fun var380 () String)
(declare-fun var379 () String)
(declare-fun var378 () String)
(declare-fun var377 () String)
(declare-fun var376 () String)
(declare-fun var375 () String)
(declare-fun var374 () String)
(declare-fun var373 () String)
(declare-fun var372 () String)
(declare-fun var371 () String)
(declare-fun var370 () String)
(declare-fun var369 () String)
(declare-fun var368 () String)
(declare-fun var367 () String)
(declare-fun var366 () String)
(declare-fun var365 () String)
(declare-fun var364 () String)
(declare-fun var363 () String)
(declare-fun var362 () String)
(declare-fun var361 () String)
(declare-fun var360 () String)
(declare-fun var359 () String)
(declare-fun var358 () String)
(declare-fun var357 () String)
(declare-fun var356 () String)
(declare-fun var355 () String)
(declare-fun var354 () String)
(declare-fun var353 () String)
(declare-fun var352 () String)
(declare-fun var351 () String)
(declare-fun var350 () String)
(declare-fun var349 () String)
(declare-fun var348 () String)
(declare-fun var347 () String)
(declare-fun var346 () String)
(declare-fun var345 () String)
(declare-fun var344 () String)
(declare-fun var343 () String)
(declare-fun var342 () String)
(declare-fun var341 () String)
(declare-fun var340 () String)
(declare-fun var339 () String)
(declare-fun var338 () String)
(declare-fun var337 () String)
(declare-fun var336 () String)
(declare-fun var335 () String)
(declare-fun var334 () String)
(declare-fun var333 () String)
(declare-fun var332 () String)
(declare-fun var331 () String)
(declare-fun var330 () String)
(declare-fun var329 () String)
(declare-fun var328 () String)
(declare-fun var327 () String)
(declare-fun var326 () String)
(declare-fun var325 () String)
(declare-fun var324 () String)
(declare-fun var323 () String)
(declare-fun var322 () String)
(declare-fun var321 () String)
(declare-fun var320 () String)
(declare-fun var319 () String)
(declare-fun var318 () String)
(declare-fun var317 () String)
(declare-fun var316 () String)
(declare-fun var315 () String)
(declare-fun var314 () String)
(declare-fun var313 () String)
(declare-fun var312 () String)
(declare-fun var311 () String)
(declare-fun var310 () String)
(declare-fun var309 () String)
(declare-fun var308 () String)
(declare-fun var307 () String)
(declare-fun var306 () String)
(declare-fun var305 () String)
(declare-fun var304 () String)
(declare-fun var303 () String)
(declare-fun var302 () String)
(declare-fun var301 () String)
(declare-fun var300 () String)
(declare-fun var299 () String)
(declare-fun var298 () String)
(declare-fun var297 () String)
(declare-fun var296 () String)
(declare-fun var295 () String)
(declare-fun var294 () String)
(declare-fun var293 () String)
(declare-fun var292 () String)
(declare-fun var291 () String)
(declare-fun var290 () String)
(declare-fun var289 () String)
(declare-fun var288 () String)
(declare-fun var287 () String)
(declare-fun var286 () String)
(declare-fun var285 () String)
(declare-fun var284 () String)
(declare-fun var283 () String)
(declare-fun var282 () String)
(declare-fun var281 () String)
(declare-fun var280 () String)
(declare-fun var279 () String)
(declare-fun var278 () String)
(declare-fun var277 () String)
(declare-fun var276 () String)
(declare-fun var275 () String)
(declare-fun var274 () String)
(declare-fun var273 () String)
(declare-fun var272 () String)
(declare-fun var271 () String)
(declare-fun var270 () String)
(declare-fun var269 () String)
(declare-fun var268 () String)
(declare-fun var267 () String)
(declare-fun var266 () String)
(declare-fun var265 () String)
(declare-fun var264 () String)
(declare-fun var263 () String)
(declare-fun var262 () String)
(declare-fun var261 () String)
(declare-fun var260 () String)
(declare-fun var259 () String)
(declare-fun var258 () String)
(declare-fun var257 () String)
(declare-fun var256 () String)
(declare-fun var255 () String)
(declare-fun var254 () String)
(declare-fun var253 () String)
(declare-fun var252 () String)
(declare-fun var251 () String)
(declare-fun var250 () String)
(declare-fun var249 () String)
(declare-fun var248 () String)
(declare-fun var247 () String)
(declare-fun var246 () String)
(declare-fun var245 () String)
(declare-fun var244 () String)
(declare-fun var243 () String)
(declare-fun var242 () String)
(declare-fun var241 () String)
(declare-fun var240 () String)
(declare-fun var239 () String)
(declare-fun var238 () String)
(declare-fun var237 () String)
(declare-fun var236 () String)
(declare-fun var235 () String)
(declare-fun var234 () String)
(declare-fun var233 () String)
(declare-fun var232 () String)
(declare-fun var231 () String)
(declare-fun var230 () String)
(declare-fun var229 () String)
(declare-fun var228 () String)
(declare-fun var227 () String)
(declare-fun var226 () String)
(declare-fun var225 () String)
(declare-fun var224 () String)
(declare-fun var223 () String)
(declare-fun var222 () String)
(declare-fun var221 () String)
(declare-fun var220 () String)
(declare-fun var219 () String)
(declare-fun var218 () String)
(declare-fun var217 () String)
(declare-fun var216 () String)
(declare-fun var215 () String)
(declare-fun var214 () String)
(declare-fun var213 () String)
(declare-fun var212 () String)
(declare-fun var211 () String)
(declare-fun var210 () String)
(declare-fun var209 () String)
(declare-fun var208 () String)
(declare-fun var207 () String)
(declare-fun var206 () String)
(declare-fun var205 () String)
(declare-fun var204 () String)
(declare-fun var203 () String)
(declare-fun var202 () String)
(declare-fun var201 () String)
(declare-fun var200 () String)
(declare-fun var199 () String)
(declare-fun var198 () String)
(declare-fun var197 () String)
(declare-fun var196 () String)
(declare-fun var195 () String)
(declare-fun var194 () String)
(declare-fun var193 () String)
(declare-fun var192 () String)
(declare-fun var191 () String)
(declare-fun var190 () String)
(declare-fun var189 () String)
(declare-fun var188 () String)
(declare-fun var187 () String)
(declare-fun var186 () String)
(declare-fun var185 () String)
(declare-fun var184 () String)
(declare-fun var183 () String)
(declare-fun var182 () String)
(declare-fun var181 () String)
(declare-fun var180 () String)
(declare-fun var179 () String)
(declare-fun var178 () String)
(declare-fun var177 () String)
(declare-fun var176 () String)
(declare-fun var175 () String)
(declare-fun var174 () String)
(declare-fun var173 () String)
(declare-fun var172 () String)
(declare-fun var171 () String)
(declare-fun var170 () String)
(declare-fun var169 () String)
(declare-fun var168 () String)
(declare-fun var167 () String)
(declare-fun var166 () String)
(declare-fun var165 () String)
(declare-fun var164 () String)
(declare-fun var163 () String)
(declare-fun var162 () String)
(declare-fun var161 () String)
(declare-fun var160 () String)
(declare-fun var159 () String)
(declare-fun var158 () String)
(declare-fun var157 () String)
(declare-fun var156 () String)
(declare-fun var155 () String)
(declare-fun var154 () String)
(declare-fun var153 () String)
(declare-fun var152 () String)
(declare-fun var151 () String)
(declare-fun var150 () String)
(declare-fun var149 () String)
(declare-fun var148 () String)
(declare-fun var147 () String)
(declare-fun var146 () String)
(declare-fun var145 () String)
(declare-fun var144 () String)
(declare-fun var143 () String)
(declare-fun var142 () String)
(declare-fun var141 () String)
(declare-fun var140 () String)
(declare-fun var139 () String)
(declare-fun var138 () String)
(declare-fun var137 () String)
(declare-fun var136 () String)
(declare-fun var135 () String)
(declare-fun var134 () String)
(declare-fun var133 () String)
(declare-fun var132 () String)
(declare-fun var131 () String)
(declare-fun var130 () String)
(declare-fun var129 () String)
(declare-fun var128 () String)
(declare-fun var127 () String)
(declare-fun var126 () String)
(declare-fun var125 () String)
(declare-fun var124 () String)
(declare-fun var123 () String)
(declare-fun var122 () String)
(declare-fun var121 () String)
(declare-fun var120 () String)
(declare-fun var119 () String)
(declare-fun var118 () String)
(declare-fun var117 () String)
(declare-fun var116 () String)
(declare-fun var115 () String)
(declare-fun var114 () String)
(declare-fun var113 () String)
(declare-fun var112 () String)
(declare-fun var111 () String)
(declare-fun var110 () String)
(declare-fun var109 () String)
(declare-fun var108 () String)
(declare-fun var107 () String)
(declare-fun var106 () String)
(declare-fun var105 () String)
(declare-fun var104 () String)
(declare-fun var103 () String)
(declare-fun var102 () String)
(declare-fun var101 () String)
(declare-fun var100 () String)
(declare-fun var99 () String)
(declare-fun var98 () String)
(declare-fun var97 () String)
(declare-fun var96 () String)
(declare-fun var95 () String)
(declare-fun var94 () String)
(declare-fun var93 () String)
(declare-fun var92 () String)
(declare-fun var91 () String)
(declare-fun var90 () String)
(declare-fun var89 () String)
(declare-fun var88 () String)
(declare-fun var87 () String)
(declare-fun var86 () String)
(declare-fun var85 () String)
(declare-fun var84 () String)
(declare-fun var83 () String)
(declare-fun var82 () String)
(declare-fun var81 () String)
(declare-fun var80 () String)
(declare-fun var79 () String)
(declare-fun var78 () String)
(declare-fun var77 () String)
(declare-fun var76 () String)
(declare-fun var75 () String)
(declare-fun var74 () String)
(declare-fun var73 () String)
(declare-fun var72 () String)
(declare-fun var71 () String)
(declare-fun var70 () String)
(declare-fun var69 () String)
(declare-fun var68 () String)
(declare-fun var67 () String)
(declare-fun var66 () String)
(declare-fun var65 () String)
(declare-fun var64 () String)
(declare-fun var63 () String)
(declare-fun var62 () String)
(declare-fun var61 () String)
(declare-fun var60 () String)
(declare-fun var59 () String)
(declare-fun var58 () String)
(declare-fun var57 () String)
(declare-fun var56 () String)
(declare-fun var55 () String)
(declare-fun var54 () String)
(declare-fun var53 () String)
(declare-fun var52 () String)
(declare-fun var51 () String)
(declare-fun var50 () String)
(declare-fun var49 () String)
(declare-fun var48 () String)
(declare-fun var47 () String)
(declare-fun var46 () String)
(declare-fun var45 () String)
(declare-fun var44 () String)
(declare-fun var43 () String)
(declare-fun var42 () String)
(declare-fun var41 () String)
(declare-fun var40 () String)
(declare-fun var39 () String)
(declare-fun var38 () String)
(declare-fun var37 () String)
(declare-fun var36 () String)
(declare-fun var35 () String)
(declare-fun var34 () String)
(declare-fun var33 () String)
(declare-fun var32 () String)
(declare-fun var31 () String)
(declare-fun var30 () String)
(declare-fun var29 () String)
(declare-fun var28 () String)
(declare-fun var27 () String)
(declare-fun var26 () String)
(declare-fun var25 () String)
(declare-fun var24 () String)
(declare-fun var23 () String)
(declare-fun var22 () String)
(declare-fun var21 () String)
(declare-fun var20 () String)
(declare-fun var19 () String)
(declare-fun var18 () String)
(declare-fun var17 () String)
(declare-fun var16 () String)
(declare-fun var15 () String)
(declare-fun var14 () String)
(declare-fun var13 () String)
(declare-fun var12 () String)
(declare-fun var11 () String)
(declare-fun var10 () String)
(declare-fun var9 () String)
(declare-fun var8 () String)
(declare-fun var7 () String)
(declare-fun var6 () String)
(declare-fun var5 () String)
(declare-fun var4 () String)
(declare-fun var3 () String)
(declare-fun var2 () String)
(declare-fun var1 () String)
(assert (= var0 (Concat (Concat (Concat (Concat (Concat (Concat (Concat (Concat (Concat var512 var511) (Concat var510 var509)) (Concat (Concat var508 var507) (Concat var506 var505))) (Concat (Concat (Concat var504 var503) (Concat var502 var501)) (Concat (Concat var500 var499) (Concat var498 var497)))) (Concat (Concat (Concat (Concat var496 var495) (Concat var494 var493)) (Concat (Concat var492 var491) (Concat var490 var489))) (Concat (Concat (Concat var488 var487) (Concat var486 var485)) (Concat (Concat var484 var483) (Concat var482 var481))))) (Concat (Concat (Concat (Concat (Concat var480 var479) (Concat var478 var477)) (Concat (Concat var476 var475) (Concat var474 var473))) (Concat (Concat (Concat var472 var471) (Concat var470 var469)) (Concat (Concat var468 var467) (Concat var466 var465)))) (Concat (Concat (Concat (Concat var464 var463) (Concat var462 var461)) (Concat (Concat var460 var459) (Concat var458 var457))) (Concat (Concat (Concat var456 var455) (Concat var454 var453)) (Concat (Concat var452 var451) (Concat var450 var449)))))) (Concat (Concat (Concat (Concat (Concat (Concat var448 var447) (Concat var446 var445)) (Concat (Concat var444 var443) (Concat var442 var441))) (Concat (Concat (Concat var440 var439) (Concat var438 var437)) (Concat (Concat var436 var435) (Concat var434 var433)))) (Concat (Concat (Concat (Concat var432 var431) (Concat var430 var429)) (Concat (Concat var428 var427) (Concat var426 var425))) (Concat (Concat (Concat var424 var423) (Concat var422 var421)) (Concat (Concat var420 var419) (Concat var418 var417))))) (Concat (Concat (Concat (Concat (Concat var416 var415) (Concat var414 var413)) (Concat (Concat var412 var411) (Concat var410 var409))) (Concat (Concat (Concat var408 var407) (Concat var406 var405)) (Concat (Concat var404 var403) (Concat var402 var401)))) (Concat (Concat (Concat (Concat var400 var399) (Concat var398 var397)) (Concat (Concat var396 var395) (Concat var394 var393))) (Concat (Concat (Concat var392 var391) (Concat var390 var389)) (Concat (Concat var388 var387) (Concat var386 var385))))))) (Concat (Concat (Concat (Concat (Concat (Concat (Concat var384 var383) (Concat var382 var381)) (Concat (Concat var380 var379) (Concat var378 var377))) (Concat (Concat (Concat var376 var375) (Concat var374 var373)) (Concat (Concat var372 var371) (Concat var370 var369)))) (Concat (Concat (Concat (Concat var368 var367) (Concat var366 var365)) (Concat (Concat var364 var363) (Concat var362 var361))) (Concat (Concat (Concat var360 var359) (Concat var358 var357)) (Concat (Concat var356 var355) (Concat var354 var353))))) (Concat (Concat (Concat (Concat (Concat var352 var351) (Concat var350 var349)) (Concat (Concat var348 var347) (Concat var346 var345))) (Concat (Concat (Concat var344 var343) (Concat var342 var341)) (Concat (Concat var340 var339) (Concat var338 var337)))) (Concat (Concat (Concat (Concat var336 var335) (Concat var334 var333)) (Concat (Concat var332 var331) (Concat var330 var329))) (Concat (Concat (Concat var328 var327) (Concat var326 var325)) (Concat (Concat var324 var323) (Concat var322 var321)))))) (Concat (Concat (Concat (Concat (Concat (Concat var320 var319) (Concat var318 var317)) (Concat (Concat var316 var315) (Concat var314 var313))) (Concat (Concat (Concat var312 var311) (Concat var310 var309)) (Concat (Concat var308 var307) (Concat var306 var305)))) (Concat (Concat (Concat (Concat var304 var303) (Concat var302 var301)) (Concat (Concat var300 var299) (Concat var298 var297))) (Concat (Concat (Concat var296 var295) (Concat var294 var293)) (Concat (Concat var292 var291) (Concat var290 var289))))) (Concat (Concat (Concat (Concat (Concat var288 var287) (Concat var286 var285)) (Concat (Concat var284 var283) (Concat var282 var281))) (Concat (Concat (Concat var280 var279) (Concat var278 var277)) (Concat (Concat var276 var275) (Concat var274 var273)))) (Concat (Concat (Concat (Concat var272 var271) (Concat var270 var269)) (Concat (Concat var268 var267) (Concat var266 var265))) (Concat (Concat (Concat var264 var263) (Concat var262 var261)) (Concat (Concat var260 var259) (Concat var258 var257)))))))) (Concat (Concat (Concat (Concat (Concat (Concat (Concat (Concat var256 var255) (Concat var254 var253)) (Concat (Concat var252 var251) (Concat var250 var249))) (Concat (Concat (Concat var248 var247) (Concat var246 var245)) (Concat (Concat var244 var243) (Concat var242 var241)))) (Concat (Concat (Concat (Concat var240 var239) (Concat var238 var237)) (Concat (Concat var236 var235) (Concat var234 var233))) (Concat (Concat (Concat var232 var231) (Concat var230 var229)) (Concat (Concat var228 var227) (Concat var226 var225))))) (Concat (Concat (Concat (Concat (Concat var224 var223) (Concat var222 var221)) (Concat (Concat var220 var219) (Concat var218 var217))) (Concat (Concat (Concat var216 var215) (Concat var214 var213)) (Concat (Concat var212 var211) (Concat var210 var209)))) (Concat (Concat (Concat (Concat var208 var207) (Concat var206 var205)) (Concat (Concat var204 var203) (Concat var202 var201))) (Concat (Concat (Concat var200 var199) (Concat var198 var197)) (Concat (Concat var196 var195) (Concat var194 var193)))))) (Concat (Concat (Concat (Concat (Concat (Concat var192 var191) (Concat var190 var189)) (Concat (Concat var188 var187) (Concat var186 var185))) (Concat (Concat (Concat var184 var183) (Concat var182 var181)) (Concat (Concat var180 var179) (Concat var178 var177)))) (Concat (Concat (Concat (Concat var176 var175) (Concat var174 var173)) (Concat (Concat var172 var171) (Concat var170 var169))) (Concat (Concat (Concat var168 var167) (Concat var166 var165)) (Concat (Concat var164 var163) (Concat var162 var161))))) (Concat (Concat (Concat (Concat (Concat var160 var159) (Concat var158 var157)) (Concat (Concat var156 var155) (Concat var154 var153))) (Concat (Concat (Concat var152 var151) (Concat var150 var149)) (Concat (Concat var148 var147) (Concat var146 var145)))) (Concat (Concat (Concat (Concat var144 var143) (Concat var142 var141)) (Concat (Concat var140 var139) (Concat var138 var137))) (Concat (Concat (Concat var136 var135) (Concat var134 var133)) (Concat (Concat var132 var131) (Concat var130 var129))))))) (Concat (Concat (Concat (Concat (Concat (Concat (Concat var128 var127) (Concat var126 var125)) (Concat (Concat var124 var123) (Concat var122 var121))) (Concat (Concat (Concat var120 var119) (Concat var118 var117)) (Concat (Concat var116 var115) (Concat var114 var113)))) (Concat (Concat (Concat (Concat var112 var111) (Concat var110 var109)) (Concat (Concat var108 var107) (Concat var106 var105))) (Concat (Concat (Concat var104 var103) (Concat var102 var101)) (Concat (Concat var100 var99) (Concat var98 var97))))) (Concat (Concat (Concat (Concat (Concat var96 var95) (Concat var94 var93)) (Concat (Concat var92 var91) (Concat var90 var89))) (Concat (Concat (Concat var88 var87) (Concat var86 var85)) (Concat (Concat var84 var83) (Concat var82 var81)))) (Concat (Concat (Concat (Concat var80 var79) (Concat var78 var77)) (Concat (Concat var76 var75) (Concat var74 var73))) (Concat (Concat (Concat var72 var71) (Concat var70 var69)) (Concat (Concat var68 var67) (Concat var66 var65)))))) (Concat (Concat (Concat (Concat (Concat (Concat var64 var63) (Concat var62 var61)) (Concat (Concat var60 var59) (Concat var58 var57))) (Concat (Concat (Concat var56 var55) (Concat var54 var53)) (Concat (Concat var52 var51) (Concat var50 var49)))) (Concat (Concat (Concat (Concat var48 var47) (Concat var46 var45)) (Concat (Concat var44 var43) (Concat var42 var41))) (Concat (Concat (Concat var40 var39) (Concat var38 var37)) (Concat (Concat var36 var35) (Concat var34 var33))))) (Concat (Concat (Concat (Concat (Concat var32 var31) (Concat var30 var29)) (Concat (Concat var28 var27) (Concat var26 var25))) (Concat (Concat (Concat var24 var23) (Concat var22 var21)) (Concat (Concat var20 var19) (Concat var18 var17)))) (Concat (Concat (Concat (Concat var16 var15) (Concat var14 var13)) (Concat (Concat var12 var11) (Concat var10 var9))) (Concat (Concat (Concat var8 var7) (Concat var6 var5)) (Concat (Concat var4 var3) (Concat var2 var1)))))))))))
(assert (= var0 "solution"))
(check-sat)